c preprocessed version of 1kw4_graph, 67 vertices, 672 edges
p td 67 672
65 66
64 66
64 65
63 66
63 65
63 64
62 66
62 65
62 64
62 63
61 66
61 65
61 64
61 63
61 62
60 65
60 64
60 63
60 62
60 61
59 66
59 63
59 62
59 61
59 60
58 66
58 65
58 63
58 62
58 61
58 60
58 59
57 65
57 64
57 61
57 60
57 59
57 58
56 64
56 63
56 61
56 60
56 59
56 58
56 57
55 62
55 59
55 58
55 57
55 56
54 61
54 58
54 57
54 56
54 55
53 61
53 60
53 57
53 56
53 55
53 54
52 60
52 59
52 57
52 56
52 55
52 54
52 53
51 58
51 57
51 56
51 55
51 54
51 53
51 52
50 55
50 54
50 51
49 50
48 55
48 52
48 50
48 49
47 59
47 56
47 55
47 52
47 51
47 50
47 49
47 48
46 62
46 60
46 59
46 58
46 57
46 56
46 55
46 54
46 53
46 52
46 51
46 50
46 49
46 48
46 47
45 62
45 58
45 55
45 49
45 48
45 47
45 46
44 59
44 55
44 52
44 49
44 48
44 47
44 46
44 45
43 63
43 60
43 59
43 58
43 57
43 56
43 55
43 53
43 52
43 51
43 48
43 47
43 46
43 45
43 44
42 66
42 63
42 62
42 59
42 58
42 55
42 49
42 48
42 46
42 45
42 44
42 43
41 66
41 63
41 62
41 61
41 59
41 58
41 56
41 55
41 54
41 49
41 47
41 46
41 45
41 44
41 43
41 42
40 66
40 62
40 59
40 58
40 49
40 46
40 45
40 44
40 42
40 41
39 66
39 65
39 63
39 62
39 59
39 58
39 42
39 41
39 40
38 66
38 65
38 63
38 62
38 61
38 59
38 58
38 55
38 46
38 45
38 41
38 40
38 39
37 62
37 58
37 49
37 46
37 45
37 42
37 41
37 40
37 39
37 38
36 66
36 41
36 40
36 39
36 38
36 37
35 66
35 65
35 62
35 61
35 58
35 39
35 38
35 37
35 36
34 41
34 40
34 39
34 38
34 37
34 36
34 35
33 62
33 58
33 55
33 49
33 46
33 45
33 41
33 40
33 38
33 37
33 36
33 35
33 34
32 37
32 36
32 34
32 33
31 58
31 55
31 50
31 49
31 46
31 45
31 41
31 38
31 37
31 33
31 32
30 50
30 49
30 33
30 32
30 31
29 34
29 33
29 32
29 31
29 30
28 62
28 61
28 58
28 55
28 54
28 49
28 46
28 45
28 41
28 38
28 37
28 35
28 34
28 33
28 32
28 31
28 30
28 29
27 58
27 55
27 54
27 51
27 50
27 49
27 46
27 45
27 41
27 38
27 37
27 33
27 31
27 30
27 29
27 28
26 50
26 31
26 30
26 29
26 28
26 27
25 58
25 33
25 30
25 29
25 28
25 27
25 26
24 62
24 58
24 57
24 55
24 54
24 53
24 51
24 50
24 47
24 46
24 45
24 41
24 38
24 33
24 31
24 30
24 28
24 27
24 26
24 25
23 58
23 55
23 54
23 53
23 51
23 50
23 46
23 28
23 27
23 26
23 25
23 24
22 54
22 29
22 28
22 26
22 25
22 24
22 23
21 61
21 58
21 57
21 54
21 53
21 51
21 24
21 23
21 22
20 61
20 57
20 54
20 53
20 22
20 21
19 65
19 64
19 62
19 61
19 60
19 58
19 57
19 54
19 53
19 46
19 41
19 38
19 28
19 24
19 22
19 21
19 20
18 65
18 61
18 58
18 57
18 25
18 22
18 20
18 19
17 29
17 28
17 26
17 25
17 24
17 23
17 22
17 19
17 18
16 65
16 62
16 61
16 59
16 58
16 57
16 55
16 54
16 46
16 45
16 41
16 38
16 37
16 35
16 33
16 31
16 29
16 28
16 27
16 25
16 24
16 23
16 22
16 19
16 18
16 17
15 66
15 65
15 64
15 62
15 61
15 58
15 57
15 46
15 41
15 39
15 38
15 35
15 34
15 33
15 28
15 24
15 19
15 18
15 17
15 16
14 29
14 25
14 22
14 18
14 17
14 16
14 15
13 38
13 34
13 33
13 32
13 30
13 29
13 28
13 27
13 26
13 25
13 24
13 22
13 18
13 17
13 16
13 15
13 14
12 66
12 65
12 62
12 61
12 58
12 46
12 45
12 41
12 40
12 39
12 38
12 37
12 35
12 34
12 33
12 31
12 29
12 28
12 27
12 25
12 24
12 19
12 17
12 16
12 15
12 14
12 13
11 65
11 62
11 61
11 38
11 35
11 34
11 33
11 28
11 18
11 16
11 15
11 14
11 13
11 12
10 34
10 32
10 29
10 25
10 18
10 17
10 15
10 14
10 13
10 12
10 11
9 38
9 37
9 36
9 35
9 34
9 33
9 32
9 31
9 30
9 29
9 28
9 25
9 16
9 13
9 12
9 11
9 10
8 36
8 35
8 34
8 32
8 29
8 15
8 14
8 13
8 12
8 11
8 10
8 9
7 66
7 65
7 62
7 61
7 58
7 41
7 39
7 38
7 36
7 35
7 34
7 33
7 28
7 19
7 16
7 15
7 14
7 12
7 11
7 10
7 9
7 8
6 39
6 36
6 35
6 34
6 11
6 8
6 7
5 66
5 65
5 62
5 40
5 39
5 38
5 37
5 36
5 35
5 34
5 8
5 7
5 6
4 66
4 65
4 64
4 63
4 62
4 61
4 59
4 58
4 41
4 40
4 39
4 38
4 37
4 36
4 35
4 34
4 33
4 28
4 19
4 16
4 15
4 12
4 11
4 7
4 6
4 5
3 66
3 65
3 62
3 39
3 38
3 36
3 35
3 11
3 7
3 6
3 5
3 4
2 65
2 35
2 15
2 11
2 10
2 8
2 7
2 6
2 5
2 4
2 3
1 66
1 65
1 64
1 62
1 61
1 39
1 38
1 35
1 19
1 18
1 15
1 14
1 12
1 11
1 7
1 6
1 4
1 3
1 2
0 65
0 64
0 61
0 18
0 15
0 11
0 7
0 4
0 2
0 1
